(set-logic QF_S)
(declare-fun var0 () String)
(declare-fun var1 () String)
(declare-fun var2 () String)
(declare-fun var3 () String)
(declare-fun var4 () String)
(declare-fun var5 () String)
(declare-fun var6 () String)
(declare-fun var7 () String)
(declare-fun var8 () String)
(declare-fun var9 () String)
(declare-fun var10 () String)
(declare-fun var11 () String)
(declare-fun var12 () String)
(declare-fun var13 () String)
(declare-fun var14 () String)
(declare-fun var15 () String)
(declare-fun var16 () String)
(declare-fun var17 () String)
(declare-fun var18 () String)
(declare-fun var19 () String)
(declare-fun var20 () String)
(declare-fun var21 () String)
(declare-fun var22 () String)
(declare-fun var23 () String)
(declare-fun var24 () String)
(declare-fun var25 () String)
(declare-fun var26 () String)
(declare-fun var27 () String)
(declare-fun var28 () String)
(declare-fun var29 () String)
(declare-fun var30 () String)
(declare-fun var31 () String)
(declare-fun var32 () String)
(declare-fun var33 () String)
(declare-fun var34 () String)
(declare-fun var35 () String)
(declare-fun var36 () String)
(declare-fun var37 () String)
(declare-fun var38 () String)
(declare-fun var39 () String)
(declare-fun var40 () String)
(declare-fun var41 () String)
(declare-fun var42 () String)
(declare-fun var43 () String)
(declare-fun var44 () String)
(declare-fun var45 () String)
(declare-fun var46 () String)
(declare-fun var47 () String)
(declare-fun var48 () String)
(declare-fun var49 () String)
(declare-fun var50 () String)
(declare-fun var51 () String)
(declare-fun var52 () String)
(declare-fun var53 () String)
(declare-fun var54 () String)
(declare-fun var55 () String)
(declare-fun var56 () String)
(declare-fun var57 () String)
(declare-fun var58 () String)
(declare-fun var59 () String)
(declare-fun var60 () String)
(declare-fun var61 () String)
(declare-fun var62 () String)
(declare-fun var63 () String)
(declare-fun var64 () String)
(declare-fun var65 () String)
(declare-fun var66 () String)
(declare-fun var67 () String)
(declare-fun var68 () String)
(declare-fun var69 () String)
(declare-fun var70 () String)
(declare-fun var71 () String)
(declare-fun var72 () String)
(declare-fun var73 () String)
(declare-fun var74 () String)
(declare-fun var75 () String)
(declare-fun var76 () String)
(declare-fun var77 () String)
(declare-fun var78 () String)
(declare-fun var79 () String)
(declare-fun var80 () String)
(declare-fun var81 () String)
(declare-fun var82 () String)
(declare-fun var83 () String)
(declare-fun var84 () String)
(declare-fun var85 () String)
(declare-fun var86 () String)
(declare-fun var87 () String)
(declare-fun var88 () String)
(declare-fun var89 () String)
(declare-fun var90 () String)
(declare-fun var91 () String)
(declare-fun var92 () String)
(declare-fun var93 () String)
(declare-fun var94 () String)
(declare-fun var95 () String)
(declare-fun var96 () String)
(declare-fun var97 () String)
(declare-fun var98 () String)
(declare-fun var99 () String)
(assert (= 83 (Length var0)))
(assert (= 64 (Length var1)))
(assert (= 49 (Length var2)))
(assert (= 10 (Length var3)))
(assert (= 77 (Length var4)))
(assert (= 77 (Length var5)))
(assert (= 30 (Length var6)))
(assert (= 58 (Length var7)))
(assert (= 81 (Length var8)))
(assert (= 53 (Length var9)))
(assert (= 70 (Length var10)))
(assert (= 41 (Length var11)))
(assert (= 71 (Length var12)))
(assert (= 28 (Length var13)))
(assert (= 5 (Length var14)))
(assert (= 2 (Length var15)))
(assert (= 35 (Length var16)))
(assert (= 78 (Length var17)))
(assert (= 51 (Length var18)))
(assert (= 88 (Length var19)))
(assert (= 18 (Length var20)))
(assert (= 28 (Length var21)))
(assert (= 29 (Length var22)))
(assert (= 82 (Length var23)))
(assert (= 79 (Length var24)))
(assert (= 53 (Length var25)))
(assert (= 76 (Length var26)))
(assert (= 64 (Length var27)))
(assert (= 97 (Length var28)))
(assert (= 22 (Length var29)))
(assert (= 18 (Length var30)))
(assert (= 85 (Length var31)))
(assert (= 6 (Length var32)))
(assert (= 94 (Length var33)))
(assert (= 30 (Length var34)))
(assert (= 12 (Length var35)))
(assert (= 75 (Length var36)))
(assert (= 0 (Length var37)))
(assert (= 30 (Length var38)))
(assert (= 74 (Length var39)))
(assert (= 14 (Length var40)))
(assert (= 8 (Length var41)))
(assert (= 83 (Length var42)))
(assert (= 5 (Length var43)))
(assert (= 24 (Length var44)))
(assert (= 31 (Length var45)))
(assert (= 19 (Length var46)))
(assert (= 27 (Length var47)))
(assert (= 43 (Length var48)))
(assert (= 52 (Length var49)))
(assert (= 67 (Length var50)))
(assert (= 52 (Length var51)))
(assert (= 10 (Length var52)))
(assert (= 47 (Length var53)))
(assert (= 75 (Length var54)))
(assert (= 11 (Length var55)))
(assert (= 40 (Length var56)))
(assert (= 82 (Length var57)))
(assert (= 49 (Length var58)))
(assert (= 15 (Length var59)))
(assert (= 65 (Length var60)))
(assert (= 41 (Length var61)))
(assert (= 6 (Length var62)))
(assert (= 9 (Length var63)))
(assert (= 6 (Length var64)))
(assert (= 37 (Length var65)))
(assert (= 38 (Length var66)))
(assert (= 90 (Length var67)))
(assert (= 4 (Length var68)))
(assert (= 21 (Length var69)))
(assert (= 13 (Length var70)))
(assert (= 47 (Length var71)))
(assert (= 45 (Length var72)))
(assert (= 36 (Length var73)))
(assert (= 21 (Length var74)))
(assert (= 58 (Length var75)))
(assert (= 84 (Length var76)))
(assert (= 54 (Length var77)))
(assert (= 96 (Length var78)))
(assert (= 24 (Length var79)))
(assert (= 83 (Length var80)))
(assert (= 94 (Length var81)))
(assert (= 31 (Length var82)))
(assert (= 11 (Length var83)))
(assert (= 15 (Length var84)))
(assert (= 53 (Length var85)))
(assert (= 20 (Length var86)))
(assert (= 63 (Length var87)))
(assert (= 75 (Length var88)))
(assert (= 66 (Length var89)))
(assert (= 58 (Length var90)))
(assert (= 69 (Length var91)))
(assert (= 88 (Length var92)))
(assert (= 67 (Length var93)))
(assert (= 22 (Length var94)))
(assert (= 97 (Length var95)))
(assert (= 0 (Length var96)))
(assert (= 91 (Length var97)))
(assert (= 12 (Length var98)))
(assert (= 2 (Length var99)))
(assert (= 129 (Length (Concat var61 var19))))
(assert (= 159 (Length (Concat var26 var42))))
(assert (= 66 (Length (Concat var73 var6))))
(assert (= 76 (Length (Concat var10 var64))))
(assert (= 44 (Length (Concat var66 var32))))
(assert (= 129 (Length (Concat var16 var33))))
(assert (= 75 (Length (Concat var96 var54))))
(assert (= 69 (Length (Concat var15 var50))))
(assert (= 158 (Length (Concat var0 var36))))
(assert (= 43 (Length (Concat var70 var38))))
(check-sat)